rcpsp/heur_output_or_constraints/Log=5/heurj60.txt
encoding rcpsp/j60.sm/j6017_3.sm nv: 136136 nc: 362582 enctime: 4.73
encoding rcpsp/j60.sm/j6017_3.sm nv: 34408 nc: 89494 enctime: 0.62
c File: j6017_3.smnaiveor5.wcnf
c optimal
c final solution cost: 79
c CPU time: 2.149307
s OPTIMUM FOUND

c File: j6017_3.smor5.wcnf
c optimal
c final solution cost: 79
c CPU time: 0.608964
s OPTIMUM FOUND


rcpsp/heur_output_or_constraints/Log=5/heurj60.txt
encoding rcpsp/j60.sm/j6017_4.sm nv: 113526 nc: 284818 enctime: 3.42
encoding rcpsp/j60.sm/j6017_4.sm nv: 30051 nc: 73768 enctime: 0.36
c File: j6017_4.smnaiveor5.wcnf
c optimal
c final solution cost: 71
c CPU time: 5.904917
s OPTIMUM FOUND

c File: j6017_4.smor5.wcnf
c optimal
c final solution cost: 71
c CPU time: 0.145140
s OPTIMUM FOUND


rcpsp/heur_output_or_constraints/Log=5/heurj60.txt
encoding rcpsp/j60.sm/j6017_5.sm nv: 115368 nc: 272788 enctime: 2.98
encoding rcpsp/j60.sm/j6017_5.sm nv: 24244 nc: 55878 enctime: 0.26
c File: j6017_5.smnaiveor5.wcnf
c optimal
c final solution cost: 53
c CPU time: 1.518575
s OPTIMUM FOUND

c File: j6017_5.smor5.wcnf
c optimal
c final solution cost: 53
c CPU time: 0.123628
s OPTIMUM FOUND


rcpsp/heur_output_or_constraints/Log=5/heurj60.txt
encoding rcpsp/j60.sm/j6017_6.sm nv: 123968 nc: 300685 enctime: 3.39
encoding rcpsp/j60.sm/j6017_6.sm nv: 30368 nc: 72085 enctime: 0.48
c File: j6017_6.smnaiveor5.wcnf
c optimal
c final solution cost: 61
c CPU time: 0.952981
s OPTIMUM FOUND

c File: j6017_6.smor5.wcnf
c optimal
c final solution cost: 61
c CPU time: 0.102501
s OPTIMUM FOUND


rcpsp/heur_output_or_constraints/Log=5/heurj60.txt
encoding rcpsp/j60.sm/j6017_7.sm nv: 128880 nc: 343094 enctime: 4.41
encoding rcpsp/j60.sm/j6017_7.sm nv: 32760 nc: 85172 enctime: 0.60
c File: j6017_7.smnaiveor5.wcnf
c optimal
c final solution cost: 79
c CPU time: 5.687153
s OPTIMUM FOUND

c File: j6017_7.smor5.wcnf
c optimal
c final solution cost: 79
c CPU time: 0.223921
s OPTIMUM FOUND


rcpsp/heur_output_or_constraints/Log=5/heurj60.txt
encoding rcpsp/j60.sm/j6017_8.sm nv: 119160 nc: 311675 enctime: 3.86
encoding rcpsp/j60.sm/j6017_8.sm nv: 32040 nc: 82017 enctime: 0.57
c File: j6017_8.smnaiveor5.wcnf
c optimal
c final solution cost: 81
c CPU time: 2.387307
s OPTIMUM FOUND

c File: j6017_8.smor5.wcnf
c optimal
c final solution cost: 81
c CPU time: 1.277885
s OPTIMUM FOUND


rcpsp/heur_output_or_constraints/Log=5/heurj60.txt
encoding rcpsp/j60.sm/j6017_9.sm nv: 112081 nc: 293795 enctime: 3.68
encoding rcpsp/j60.sm/j6017_9.sm nv: 25678 nc: 65462 enctime: 0.31
c File: j6017_9.smnaiveor5.wcnf
c optimal
c final solution cost: 70
c CPU time: 2.737597
s OPTIMUM FOUND

c File: j6017_9.smor5.wcnf
c optimal
c final solution cost: 70
c CPU time: 0.316666
s OPTIMUM FOUND


rcpsp/heur_output_or_constraints/Log=5/heurj60.txt
encoding rcpsp/j60.sm/j601_7.sm nv: 122436 nc: 314203 enctime: 3.72
encoding rcpsp/j60.sm/j601_7.sm nv: 28282 nc: 70665 enctime: 0.48
c File: j601_7.smnaiveor5.wcnf
c optimal
c final solution cost: 67
c CPU time: 1.213416
s OPTIMUM FOUND

c File: j601_7.smor5.wcnf
c optimal
c final solution cost: 67
c CPU time: 0.256231
s OPTIMUM FOUND


rcpsp/heur_output_or_constraints/Log=5/heurj60.txt
encoding rcpsp/j60.sm/j6018_10.sm nv: 173568 nc: 442719 enctime: 5.64
encoding rcpsp/j60.sm/j6018_10.sm nv: 46556 nc: 116478 enctime: 0.80
c File: j6018_10.smnaiveor5.wcnf
c optimal
c final solution cost: 85
c CPU time: 1.311886
s OPTIMUM FOUND

c File: j6018_10.smor5.wcnf
c optimal
c final solution cost: 85
c CPU time: 0.149441
s OPTIMUM FOUND


rcpsp/heur_output_or_constraints/Log=5/heurj60.txt
encoding rcpsp/j60.sm/j6018_1.sm nv: 139527 nc: 348075 enctime: 4.08
encoding rcpsp/j60.sm/j6018_1.sm nv: 33939 nc: 82719 enctime: 0.55
c File: j6018_1.smnaiveor5.wcnf
c optimal
c final solution cost: 73
c CPU time: 1.094907
s OPTIMUM FOUND

c File: j6018_1.smor5.wcnf
c optimal
c final solution cost: 73
c CPU time: 0.102823
s OPTIMUM FOUND


rcpsp/heur_output_or_constraints/Log=5/heurj60.txt
encoding rcpsp/j60.sm/j6018_2.sm nv: 167670 nc: 409208 enctime: 4.80
encoding rcpsp/j60.sm/j6018_2.sm nv: 29646 nc: 70112 enctime: 0.48
c File: j6018_2.smnaiveor5.wcnf
c optimal
c final solution cost: 59
c CPU time: 1.157987
s OPTIMUM FOUND

c File: j6018_2.smor5.wcnf
c optimal
c final solution cost: 59
c CPU time: 0.087214
s OPTIMUM FOUND


rcpsp/heur_output_or_constraints/Log=5/heurj60.txt
encoding rcpsp/j60.sm/j6018_3.sm nv: 138993 nc: 341160 enctime: 4.03
encoding rcpsp/j60.sm/j6018_3.sm nv: 26846 nc: 64030 enctime: 0.29
c File: j6018_3.smnaiveor5.wcnf
c optimal
c final solution cost: 61
c CPU time: 1.189642
s OPTIMUM FOUND

c File: j6018_3.smor5.wcnf
c optimal
c final solution cost: 61
c CPU time: 0.069921
s OPTIMUM FOUND


rcpsp/heur_output_or_constraints/Log=5/heurj60.txt
encoding rcpsp/j60.sm/j6018_4.sm nv: 171308 nc: 436628 enctime: 5.34
encoding rcpsp/j60.sm/j6018_4.sm nv: 31188 nc: 77028 enctime: 0.53
c File: j6018_4.smnaiveor5.wcnf
c optimal
c final solution cost: 65
c CPU time: 1.840431
s OPTIMUM FOUND

c File: j6018_4.smor5.wcnf
c optimal
c final solution cost: 65
c CPU time: 0.108424
s OPTIMUM FOUND


rcpsp/heur_output_or_constraints/Log=5/heurj60.txt
encoding rcpsp/j60.sm/j6018_5.sm nv: 141036 nc: 344431 enctime: 3.92
encoding rcpsp/j60.sm/j6018_5.sm nv: 35040 nc: 83797 enctime: 0.56
c File: j6018_5.smnaiveor5.wcnf
c optimal
c final solution cost: 75
c CPU time: 0.970528
s OPTIMUM FOUND

c File: j6018_5.smor5.wcnf
c optimal
c final solution cost: 75
c CPU time: 0.107287
s OPTIMUM FOUND


rcpsp/heur_output_or_constraints/Log=5/heurj60.txt
encoding rcpsp/j60.sm/j6018_6.sm nv: 155685 nc: 370400 enctime: 4.14
encoding rcpsp/j60.sm/j6018_6.sm nv: 29100 nc: 67379 enctime: 0.46
c File: j6018_6.smnaiveor5.wcnf
c optimal
c final solution cost: 53
c CPU time: 1.225103
s OPTIMUM FOUND

c File: j6018_6.smor5.wcnf
c optimal
c final solution cost: 53
c CPU time: 0.114221
s OPTIMUM FOUND


rcpsp/heur_output_or_constraints/Log=5/heurj60.txt
encoding rcpsp/j60.sm/j6018_7.sm nv: 145820 nc: 349947 enctime: 3.99
encoding rcpsp/j60.sm/j6018_7.sm nv: 39560 nc: 93306 enctime: 0.63
c File: j6018_7.smnaiveor5.wcnf
c optimal
c final solution cost: 76
c CPU time: 0.987998
s OPTIMUM FOUND

c File: j6018_7.smor5.wcnf
c optimal
c final solution cost: 76
c CPU time: 0.114245
s OPTIMUM FOUND


rcpsp/heur_output_or_constraints/Log=5/heurj60.txt
encoding rcpsp/j60.sm/j6018_8.sm nv: 151970 nc: 374193 enctime: 4.36
encoding rcpsp/j60.sm/j6018_8.sm nv: 29575 nc: 70761 enctime: 0.48
c File: j6018_8.smnaiveor5.wcnf
c optimal
c final solution cost: 60
c CPU time: 1.540921
s OPTIMUM FOUND

c File: j6018_8.smor5.wcnf
c optimal
c final solution cost: 60
c CPU time: 0.100641
s OPTIMUM FOUND


rcpsp/heur_output_or_constraints/Log=5/heurj60.txt
encoding rcpsp/j60.sm/j6018_9.sm nv: 138689 nc: 344676 enctime: 4.04
encoding rcpsp/j60.sm/j6018_9.sm nv: 31425 nc: 76132 enctime: 0.52
c File: j6018_9.smnaiveor5.wcnf
c optimal
c final solution cost: 64
c CPU time: 1.029986
s OPTIMUM FOUND

c File: j6018_9.smor5.wcnf
c optimal
c final solution cost: 64
c CPU time: 0.102024
s OPTIMUM FOUND


rcpsp/heur_output_or_constraints/Log=5/heurj60.txt
encoding rcpsp/j60.sm/j601_8.sm nv: 135772 nc: 355405 enctime: 4.20
encoding rcpsp/j60.sm/j601_8.sm nv: 29467 nc: 74965 enctime: 0.50
c File: j601_8.smnaiveor5.wcnf
c optimal
c final solution cost: 71
c CPU time: 4.241334
s OPTIMUM FOUND

c File: j601_8.smor5.wcnf
c optimal
c final solution cost: 71
c CPU time: 0.109552
s OPTIMUM FOUND


rcpsp/heur_output_or_constraints/Log=5/heurj60.txt
encoding rcpsp/j60.sm/j6019_10.sm nv: 188720 nc: 444366 enctime: 4.86
encoding rcpsp/j60.sm/j6019_10.sm nv: 35280 nc: 81042 enctime: 0.54
c File: j6019_10.smnaiveor5.wcnf
c optimal
c final solution cost: 62
c CPU time: 1.072444
s OPTIMUM FOUND

c File: j6019_10.smor5.wcnf
c optimal
c final solution cost: 62
c CPU time: 0.081116
s OPTIMUM FOUND


rcpsp/heur_output_or_constraints/Log=5/heurj60.txt
encoding rcpsp/j60.sm/j6019_1.sm nv: 179958 nc: 424780 enctime: 4.80
encoding rcpsp/j60.sm/j6019_1.sm nv: 33642 nc: 77348 enctime: 0.52
c File: j6019_1.smnaiveor5.wcnf
c optimal
c final solution cost: 62
c CPU time: 1.084318
s OPTIMUM FOUND

c File: j6019_1.smor5.wcnf
c optimal
c final solution cost: 62
c CPU time: 0.080521
s OPTIMUM FOUND


rcpsp/heur_output_or_constraints/Log=5/heurj60.txt
encoding rcpsp/j60.sm/j6019_2.sm nv: 188123 nc: 467823 enctime: 5.63
encoding rcpsp/j60.sm/j6019_2.sm nv: 38423 nc: 93123 enctime: 0.63
c File: j6019_2.smnaiveor5.wcnf
c optimal
c final solution cost: 69
c CPU time: 1.644659
s OPTIMUM FOUND

c File: j6019_2.smor5.wcnf
c optimal
c final solution cost: 69
c CPU time: 0.155668
s OPTIMUM FOUND


rcpsp/heur_output_or_constraints/Log=5/heurj60.txt
encoding rcpsp/j60.sm/j6019_3.sm nv: 163917 nc: 400948 enctime: 4.74
encoding rcpsp/j60.sm/j6019_3.sm nv: 34091 nc: 81248 enctime: 0.55
c File: j6019_3.smnaiveor5.wcnf
c optimal
c final solution cost: 72
c CPU time: 1.119055
s OPTIMUM FOUND

c File: j6019_3.smor5.wcnf
c optimal
c final solution cost: 72
c CPU time: 0.085863
s OPTIMUM FOUND


rcpsp/heur_output_or_constraints/Log=5/heurj60.txt
encoding rcpsp/j60.sm/j6019_4.sm nv: 186296 nc: 427323 enctime: 4.52
encoding rcpsp/j60.sm/j6019_4.sm nv: 34456 nc: 77103 enctime: 0.51
c File: j6019_4.smnaiveor5.wcnf
c optimal
c final solution cost: 58
c CPU time: 0.997520
s OPTIMUM FOUND

c File: j6019_4.smor5.wcnf
c optimal
c final solution cost: 58
c CPU time: 0.074078
s OPTIMUM FOUND


rcpsp/heur_output_or_constraints/Log=5/heurj60.txt
encoding rcpsp/j60.sm/j6019_5.sm nv: 157740 nc: 381598 enctime: 4.34
encoding rcpsp/j60.sm/j6019_5.sm nv: 32026 nc: 75466 enctime: 0.50
c File: j6019_5.smnaiveor5.wcnf
c optimal
c final solution cost: 65
c CPU time: 1.000440
s OPTIMUM FOUND

c File: j6019_5.smor5.wcnf
c optimal
c final solution cost: 65
c CPU time: 0.079625
s OPTIMUM FOUND


rcpsp/heur_output_or_constraints/Log=5/heurj60.txt
encoding rcpsp/j60.sm/j6019_6.sm nv: 168756 nc: 408664 enctime: 4.68
encoding rcpsp/j60.sm/j6019_6.sm nv: 31980 nc: 75342 enctime: 0.51
c File: j6019_6.smnaiveor5.wcnf
c optimal
c final solution cost: 64
c CPU time: 1.078411
s OPTIMUM FOUND

c File: j6019_6.smor5.wcnf
c optimal
c final solution cost: 64
c CPU time: 0.072945
s OPTIMUM FOUND


rcpsp/heur_output_or_constraints/Log=5/heurj60.txt
encoding rcpsp/j60.sm/j6019_7.sm nv: 175380 nc: 403201 enctime: 4.23
encoding rcpsp/j60.sm/j6019_7.sm nv: 34410 nc: 77319 enctime: 0.50
c File: j6019_7.smnaiveor5.wcnf
c optimal
c final solution cost: 57
c CPU time: 0.999886
s OPTIMUM FOUND

c File: j6019_7.smor5.wcnf
c optimal
c final solution cost: 57
c CPU time: 0.086281
s OPTIMUM FOUND


rcpsp/heur_output_or_constraints/Log=5/heurj60.txt
encoding rcpsp/j60.sm/j6019_8.sm nv: 154380 nc: 373717 enctime: 4.31
encoding rcpsp/j60.sm/j6019_8.sm nv: 31620 nc: 74605 enctime: 0.50
c File: j6019_8.smnaiveor5.wcnf
c optimal
c final solution cost: 67
c CPU time: 1.332175
s OPTIMUM FOUND

c File: j6019_8.smor5.wcnf
c optimal
c final solution cost: 67
c CPU time: 0.091794
s OPTIMUM FOUND


rcpsp/heur_output_or_constraints/Log=5/heurj60.txt
encoding rcpsp/j60.sm/j6019_9.sm nv: 177500 nc: 427154 enctime: 4.93
encoding rcpsp/j60.sm/j6019_9.sm nv: 35500 nc: 83230 enctime: 0.56
c File: j6019_9.smnaiveor5.wcnf
c optimal
c final solution cost: 66
c CPU time: 1.143152
s OPTIMUM FOUND

c File: j6019_9.smor5.wcnf
c optimal
c final solution cost: 66
c CPU time: 0.090792
s OPTIMUM FOUND


rcpsp/heur_output_or_constraints/Log=5/heurj60.txt
encoding rcpsp/j60.sm/j601_9.sm nv: 128625 nc: 329538 enctime: 3.83
encoding rcpsp/j60.sm/j601_9.sm nv: 34125 nc: 85602 enctime: 0.57
c File: j601_9.smnaiveor5.wcnf
c optimal
c final solution cost: 77
c CPU time: 0.990812
s OPTIMUM FOUND

c File: j601_9.smor5.wcnf
c optimal
c final solution cost: 77
c CPU time: 0.179765
s OPTIMUM FOUND


rcpsp/heur_output_or_constraints/Log=5/heurj60.txt
encoding rcpsp/j60.sm/j6020_10.sm nv: 181485 nc: 422381 enctime: 4.65
encoding rcpsp/j60.sm/j6020_10.sm nv: 30525 nc: 69053 enctime: 0.47
c File: j6020_10.smnaiveor5.wcnf
c optimal
c final solution cost: 54
c CPU time: 1.016106
s OPTIMUM FOUND

c File: j6020_10.smor5.wcnf
c optimal
c final solution cost: 54
c CPU time: 0.065171
s OPTIMUM FOUND


rcpsp/heur_output_or_constraints/Log=5/heurj60.txt
encoding rcpsp/j60.sm/j6020_1.sm nv: 205800 nc: 473152 enctime: 5.15
encoding rcpsp/j60.sm/j6020_1.sm nv: 36000 nc: 80631 enctime: 0.54
c File: j6020_1.smnaiveor5.wcnf
c optimal
c final solution cost: 59
c CPU time: 1.123989
s OPTIMUM FOUND

c File: j6020_1.smor5.wcnf
c optimal
c final solution cost: 59
c CPU time: 0.075032
s OPTIMUM FOUND


rcpsp/heur_output_or_constraints/Log=5/heurj60.txt
encoding rcpsp/j60.sm/j6020_2.sm nv: 136697 nc: 317739 enctime: 3.47
encoding rcpsp/j60.sm/j6020_2.sm nv: 32164 nc: 73313 enctime: 0.48
c File: j6020_2.smnaiveor5.wcnf
c optimal
c final solution cost: 67
c CPU time: 0.826205
s OPTIMUM FOUND

c File: j6020_2.smor5.wcnf
c optimal
c final solution cost: 67
c CPU time: 0.079537
s OPTIMUM FOUND


rcpsp/heur_output_or_constraints/Log=5/heurj60.txt
encoding rcpsp/j60.sm/j6020_3.sm nv: 226501 nc: 517928 enctime: 5.62
encoding rcpsp/j60.sm/j6020_3.sm nv: 45430 nc: 101660 enctime: 0.67
c File: j6020_3.smnaiveor5.wcnf
c optimal
c final solution cost: 69
c CPU time: 1.194808
s OPTIMUM FOUND

c File: j6020_3.smor5.wcnf
c optimal
c final solution cost: 69
c CPU time: 0.096556
s OPTIMUM FOUND


rcpsp/heur_output_or_constraints/Log=5/heurj60.txt
encoding rcpsp/j60.sm/j6020_4.sm nv: 221028 nc: 500169 enctime: 5.37
encoding rcpsp/j60.sm/j6020_4.sm nv: 56724 nc: 126453 enctime: 0.81
c File: j6020_4.smnaiveor5.wcnf
c optimal
c final solution cost: 86
c CPU time: 1.127317
s OPTIMUM FOUND

c File: j6020_4.smor5.wcnf
c optimal
c final solution cost: 86
c CPU time: 0.128262
s OPTIMUM FOUND


rcpsp/heur_output_or_constraints/Log=5/heurj60.txt
encoding rcpsp/j60.sm/j6020_5.sm nv: 187824 nc: 442839 enctime: 5.02
encoding rcpsp/j60.sm/j6020_5.sm nv: 39312 nc: 90599 enctime: 0.60
c File: j6020_5.smnaiveor5.wcnf
c optimal
c final solution cost: 71
c CPU time: 1.093642
s OPTIMUM FOUND

c File: j6020_5.smor5.wcnf
c optimal
c final solution cost: 71
c CPU time: 0.091275
s OPTIMUM FOUND


rcpsp/heur_output_or_constraints/Log=5/heurj60.txt
encoding rcpsp/j60.sm/j6020_6.sm nv: 210858 nc: 486508 enctime: 5.30
encoding rcpsp/j60.sm/j6020_6.sm nv: 60956 nc: 138745 enctime: 0.90
c File: j6020_6.smnaiveor5.wcnf
c optimal
c final solution cost: 97
c CPU time: 1.125797
s OPTIMUM FOUND

c File: j6020_6.smor5.wcnf
c optimal
c final solution cost: 97
c CPU time: 0.152729
s OPTIMUM FOUND


rcpsp/heur_output_or_constraints/Log=5/heurj60.txt
encoding rcpsp/j60.sm/j6020_7.sm nv: 209902 nc: 481875 enctime: 5.00
encoding rcpsp/j60.sm/j6020_7.sm nv: 45298 nc: 102099 enctime: 0.66
c File: j6020_7.smnaiveor5.wcnf
c optimal
c final solution cost: 68
c CPU time: 1.081879
s OPTIMUM FOUND

c File: j6020_7.smor5.wcnf
c optimal
c final solution cost: 68
c CPU time: 0.107484
s OPTIMUM FOUND


rcpsp/heur_output_or_constraints/Log=5/heurj60.txt
encoding rcpsp/j60.sm/j6020_8.sm nv: 178856 nc: 408182 enctime: 4.42
encoding rcpsp/j60.sm/j6020_8.sm nv: 39054 nc: 87329 enctime: 0.58
c File: j6020_8.smnaiveor5.wcnf
c optimal
c final solution cost: 64
c CPU time: 0.982614
s OPTIMUM FOUND

c File: j6020_8.smor5.wcnf
c optimal
c final solution cost: 64
c CPU time: 0.096714
s OPTIMUM FOUND


rcpsp/heur_output_or_constraints/Log=5/heurj60.txt
encoding rcpsp/j60.sm/j6020_9.sm nv: 180411 nc: 441399 enctime: 5.30
encoding rcpsp/j60.sm/j6020_9.sm nv: 37275 nc: 88887 enctime: 0.42
c File: j6020_9.smnaiveor5.wcnf
c optimal
c final solution cost: 72
c CPU time: 1.173700
s OPTIMUM FOUND

c File: j6020_9.smor5.wcnf
c optimal
c final solution cost: 72
c CPU time: 0.097649
s OPTIMUM FOUND


